c User generated cnf file
p cnf 8 33
8 8 -7 0 
2 1 -8 0 
6 -3 5 0 
8 2 -8 0 
1 5 -1 0 
5 -1 8 0 
1 5 -7 0 
6 -1 3 0 
2 -5 8 0 
6 7 -4 0 
3 -7 4 0 
6 1 -5 0 
1 7 -1 0 
4 -4 2 0 
4 8 -4 0 
8 -8 1 0 
7 8 -8 0 
6 -4 3 0 
3 6 -8 0 
1 -2 4 0 
1 6 -3 0 
5 -7 6 0 
5 7 -2 0 
2 4 -6 0 
3 -5 3 0 
4 8 -2 0 
7 -2 8 0 
3 3 -5 0 
7 -3 7 0 
7 7 -4 0 
6 -7 3 0 
7 -1 8 0 
4 -2 5 0 
